p cnf 1139 2359
1 -2 0
2 -1 0
3 4 0
5 4 0
-3 -5 -4 0
-6 4 -7 0
6 -4 -7 0
7 -4 -6 0
6 4 7 0
-7 0
8 9 0
10 9 0
-8 -10 -9 0
-5 9 -11 0
5 -9 -11 0
11 -9 -5 0
5 9 11 0
-11 0
12 13 0
14 13 0
-12 -14 -13 0
-10 13 -15 0
10 -13 -15 0
15 -13 -10 0
10 13 15 0
-15 0
16 17 0
18 17 0
-16 -18 -17 0
-14 17 -19 0
14 -17 -19 0
19 -17 -14 0
14 17 19 0
-19 0
20 21 0
22 21 0
-20 -22 -21 0
-18 21 -23 0
18 -21 -23 0
23 -21 -18 0
18 21 23 0
-23 0
24 25 0
26 25 0
-24 -26 -25 0
-22 25 -27 0
22 -25 -27 0
27 -25 -22 0
22 25 27 0
-27 0
28 29 0
30 29 0
-28 -30 -29 0
-26 29 -31 0
26 -29 -31 0
31 -29 -26 0
26 29 31 0
-31 0
32 33 0
34 33 0
-32 -34 -33 0
-30 33 -35 0
30 -33 -35 0
35 -33 -30 0
30 33 35 0
-35 0
36 37 0
38 37 0
-36 -38 -37 0
-34 37 -39 0
34 -37 -39 0
39 -37 -34 0
34 37 39 0
-39 0
40 41 0
42 41 0
-40 -42 -41 0
-38 41 -43 0
38 -41 -43 0
43 -41 -38 0
38 41 43 0
-43 0
44 45 0
46 45 0
-44 -46 -45 0
-42 45 -47 0
42 -45 -47 0
47 -45 -42 0
42 45 47 0
-47 0
24 48 0
28 48 0
32 48 0
36 48 0
40 48 0
44 48 0
49 48 0
-50 0
-46 48 -51 0
46 -48 -51 0
51 -48 -46 0
46 48 51 0
-51 0
52 53 0
54 53 0
-52 -54 -53 0
-55 53 -56 0
55 -53 -56 0
56 -53 -55 0
55 53 56 0
-56 0
57 58 0
59 58 0
-57 -59 -58 0
-54 58 -60 0
54 -58 -60 0
60 -58 -54 0
54 58 60 0
-60 0
61 62 0
63 62 0
-61 -63 -62 0
-59 62 -64 0
59 -62 -64 0
64 -62 -59 0
59 62 64 0
-64 0
65 66 0
67 66 0
-65 -67 -66 0
-63 66 -68 0
63 -66 -68 0
68 -66 -63 0
63 66 68 0
-68 0
69 70 0
71 70 0
-69 -71 -70 0
-67 70 -72 0
67 -70 -72 0
72 -70 -67 0
67 70 72 0
-72 0
73 74 0
75 74 0
-73 -75 -74 0
-71 74 -76 0
71 -74 -76 0
76 -74 -71 0
71 74 76 0
-76 0
77 78 0
79 78 0
-77 -79 -78 0
-75 78 -80 0
75 -78 -80 0
80 -78 -75 0
75 78 80 0
-80 0
81 82 0
83 82 0
-81 -83 -82 0
-79 82 -84 0
79 -82 -84 0
84 -82 -79 0
79 82 84 0
-84 0
85 86 0
87 86 0
-85 -87 -86 0
-83 86 -88 0
83 -86 -88 0
88 -86 -83 0
83 86 88 0
-88 0
89 90 0
91 90 0
-89 -91 -90 0
-87 90 -92 0
87 -90 -92 0
92 -90 -87 0
87 90 92 0
-92 0
93 94 0
95 94 0
-93 -95 -94 0
-91 94 -96 0
91 -94 -96 0
96 -94 -91 0
91 94 96 0
-96 0
77 97 0
81 97 0
85 97 0
89 97 0
93 97 0
98 97 0
-99 0
-95 97 -100 0
95 -97 -100 0
100 -97 -95 0
95 97 100 0
-100 0
101 102 0
103 102 0
-101 -103 -102 0
-104 102 -105 0
104 -102 -105 0
105 -102 -104 0
104 102 105 0
-105 0
106 107 0
108 107 0
-106 -108 -107 0
-103 107 -109 0
103 -107 -109 0
109 -107 -103 0
103 107 109 0
-109 0
110 111 0
112 111 0
-110 -112 -111 0
-108 111 -113 0
108 -111 -113 0
113 -111 -108 0
108 111 113 0
-113 0
114 115 0
116 115 0
-114 -116 -115 0
-112 115 -117 0
112 -115 -117 0
117 -115 -112 0
112 115 117 0
-117 0
118 119 0
120 119 0
-118 -120 -119 0
-116 119 -121 0
116 -119 -121 0
121 -119 -116 0
116 119 121 0
-121 0
122 123 0
124 123 0
-122 -124 -123 0
-120 123 -125 0
120 -123 -125 0
125 -123 -120 0
120 123 125 0
-125 0
126 127 0
128 127 0
-126 -128 -127 0
-124 127 -129 0
124 -127 -129 0
129 -127 -124 0
124 127 129 0
-129 0
130 131 0
132 131 0
-130 -132 -131 0
-128 131 -133 0
128 -131 -133 0
133 -131 -128 0
128 131 133 0
-133 0
134 135 0
136 135 0
-134 -136 -135 0
-132 135 -137 0
132 -135 -137 0
137 -135 -132 0
132 135 137 0
-137 0
138 139 0
140 139 0
-138 -140 -139 0
-136 139 -141 0
136 -139 -141 0
141 -139 -136 0
136 139 141 0
-141 0
142 143 0
144 143 0
-142 -144 -143 0
-140 143 -145 0
140 -143 -145 0
145 -143 -140 0
140 143 145 0
-145 0
118 146 0
122 146 0
126 146 0
130 146 0
134 146 0
138 146 0
142 146 0
147 146 0
-148 0
-144 146 -149 0
144 -146 -149 0
149 -146 -144 0
144 146 149 0
-149 0
150 151 0
152 151 0
-150 -152 -151 0
-153 151 -154 0
153 -151 -154 0
154 -151 -153 0
153 151 154 0
-154 0
155 156 0
157 156 0
-155 -157 -156 0
-152 156 -158 0
152 -156 -158 0
158 -156 -152 0
152 156 158 0
-158 0
159 160 0
161 160 0
-159 -161 -160 0
-157 160 -162 0
157 -160 -162 0
162 -160 -157 0
157 160 162 0
-162 0
163 164 0
165 164 0
-163 -165 -164 0
-161 164 -166 0
161 -164 -166 0
166 -164 -161 0
161 164 166 0
-166 0
167 168 0
169 168 0
-167 -169 -168 0
-165 168 -170 0
165 -168 -170 0
170 -168 -165 0
165 168 170 0
-170 0
171 172 0
173 172 0
-171 -173 -172 0
-169 172 -174 0
169 -172 -174 0
174 -172 -169 0
169 172 174 0
-174 0
175 176 0
177 176 0
-175 -177 -176 0
-173 176 -178 0
173 -176 -178 0
178 -176 -173 0
173 176 178 0
-178 0
179 180 0
181 180 0
-179 -181 -180 0
-177 180 -182 0
177 -180 -182 0
182 -180 -177 0
177 180 182 0
-182 0
183 184 0
185 184 0
-183 -185 -184 0
-181 184 -186 0
181 -184 -186 0
186 -184 -181 0
181 184 186 0
-186 0
187 188 0
189 188 0
-187 -189 -188 0
-185 188 -190 0
185 -188 -190 0
190 -188 -185 0
185 188 190 0
-190 0
191 192 0
193 192 0
-191 -193 -192 0
-189 192 -194 0
189 -192 -194 0
194 -192 -189 0
189 192 194 0
-194 0
195 196 0
197 196 0
-195 -197 -196 0
-193 196 -198 0
193 -196 -198 0
198 -196 -193 0
193 196 198 0
-198 0
171 199 0
175 199 0
179 199 0
183 199 0
187 199 0
191 199 0
195 199 0
200 199 0
-201 0
-197 199 -202 0
197 -199 -202 0
202 -199 -197 0
197 199 202 0
-202 0
203 204 0
205 204 0
-203 -205 -204 0
-206 204 -207 0
206 -204 -207 0
207 -204 -206 0
206 204 207 0
-207 0
208 209 0
210 209 0
-208 -210 -209 0
-205 209 -211 0
205 -209 -211 0
211 -209 -205 0
205 209 211 0
-211 0
212 213 0
214 213 0
-212 -214 -213 0
-210 213 -215 0
210 -213 -215 0
215 -213 -210 0
210 213 215 0
-215 0
216 217 0
218 217 0
-216 -218 -217 0
-214 217 -219 0
214 -217 -219 0
219 -217 -214 0
214 217 219 0
-219 0
220 221 0
222 221 0
-220 -222 -221 0
-218 221 -223 0
218 -221 -223 0
223 -221 -218 0
218 221 223 0
-223 0
128 224 0
225 224 0
-128 -225 -224 0
-222 224 -226 0
222 -224 -226 0
226 -224 -222 0
222 224 226 0
-226 0
227 228 0
229 228 0
-227 -229 -228 0
-230 228 -231 0
230 -228 -231 0
231 -228 -230 0
230 228 231 0
-231 0
232 233 0
234 233 0
-232 -234 -233 0
-229 233 -235 0
229 -233 -235 0
235 -233 -229 0
229 233 235 0
-235 0
236 237 0
238 237 0
-236 -238 -237 0
-234 237 -239 0
234 -237 -239 0
239 -237 -234 0
234 237 239 0
-239 0
240 241 0
242 241 0
-240 -242 -241 0
-238 241 -243 0
238 -241 -243 0
243 -241 -238 0
238 241 243 0
-243 0
244 245 0
246 245 0
-244 -246 -245 0
-242 245 -247 0
242 -245 -247 0
247 -245 -242 0
242 245 247 0
-247 0
248 249 0
250 249 0
-248 -250 -249 0
-246 249 -251 0
246 -249 -251 0
251 -249 -246 0
246 249 251 0
-251 0
252 253 0
254 253 0
-252 -254 -253 0
-250 253 -255 0
250 -253 -255 0
255 -253 -250 0
250 253 255 0
-255 0
256 257 0
258 257 0
-256 -258 -257 0
-254 257 -259 0
254 -257 -259 0
259 -257 -254 0
254 257 259 0
-259 0
260 261 0
262 261 0
-260 -262 -261 0
-258 261 -263 0
258 -261 -263 0
263 -261 -258 0
258 261 263 0
-263 0
264 265 0
266 265 0
-264 -266 -265 0
-262 265 -267 0
262 -265 -267 0
267 -265 -262 0
262 265 267 0
-267 0
268 269 0
270 269 0
-268 -270 -269 0
-266 269 -271 0
266 -269 -271 0
271 -269 -266 0
266 269 271 0
-271 0
272 273 0
274 273 0
-272 -274 -273 0
-270 273 -275 0
270 -273 -275 0
275 -273 -270 0
270 273 275 0
-275 0
276 277 0
278 277 0
-276 -278 -277 0
-274 277 -279 0
274 -277 -279 0
279 -277 -274 0
274 277 279 0
-279 0
252 280 0
256 280 0
260 280 0
264 280 0
268 280 0
272 280 0
276 280 0
281 280 0
-282 0
-278 280 -283 0
278 -280 -283 0
283 -280 -278 0
278 280 283 0
-283 0
284 285 0
286 285 0
-284 -286 -285 0
-287 285 -288 0
287 -285 -288 0
288 -285 -287 0
287 285 288 0
-288 0
289 290 0
291 290 0
-289 -291 -290 0
-286 290 -292 0
286 -290 -292 0
292 -290 -286 0
286 290 292 0
-292 0
293 294 0
295 294 0
-293 -295 -294 0
-291 294 -296 0
291 -294 -296 0
296 -294 -291 0
291 294 296 0
-296 0
297 298 0
299 298 0
-297 -299 -298 0
-295 298 -300 0
295 -298 -300 0
300 -298 -295 0
295 298 300 0
-300 0
301 302 0
303 302 0
-301 -303 -302 0
-299 302 -304 0
299 -302 -304 0
304 -302 -299 0
299 302 304 0
-304 0
305 306 0
307 306 0
-305 -307 -306 0
-303 306 -308 0
303 -306 -308 0
308 -306 -303 0
303 306 308 0
-308 0
309 310 0
311 310 0
-309 -311 -310 0
-307 310 -312 0
307 -310 -312 0
312 -310 -307 0
307 310 312 0
-312 0
313 314 0
315 314 0
-313 -315 -314 0
-311 314 -316 0
311 -314 -316 0
316 -314 -311 0
311 314 316 0
-316 0
317 318 0
319 318 0
-317 -319 -318 0
-315 318 -320 0
315 -318 -320 0
320 -318 -315 0
315 318 320 0
-320 0
321 322 0
323 322 0
-321 -323 -322 0
-319 322 -324 0
319 -322 -324 0
324 -322 -319 0
319 322 324 0
-324 0
325 326 0
327 326 0
-325 -327 -326 0
-323 326 -328 0
323 -326 -328 0
328 -326 -323 0
323 326 328 0
-328 0
329 330 0
331 330 0
-329 -331 -330 0
-327 330 -332 0
327 -330 -332 0
332 -330 -327 0
327 330 332 0
-332 0
313 333 0
317 333 0
321 333 0
325 333 0
329 333 0
334 333 0
-335 0
-331 333 -336 0
331 -333 -336 0
336 -333 -331 0
331 333 336 0
-336 0
337 338 0
339 338 0
-337 -339 -338 0
-340 338 -341 0
340 -338 -341 0
341 -338 -340 0
340 338 341 0
-341 0
342 343 0
344 343 0
-342 -344 -343 0
-339 343 -345 0
339 -343 -345 0
345 -343 -339 0
339 343 345 0
-345 0
346 347 0
348 347 0
-346 -348 -347 0
-344 347 -349 0
344 -347 -349 0
349 -347 -344 0
344 347 349 0
-349 0
350 351 0
352 351 0
-350 -352 -351 0
-348 351 -353 0
348 -351 -353 0
353 -351 -348 0
348 351 353 0
-353 0
354 355 0
356 355 0
-354 -356 -355 0
-352 355 -357 0
352 -355 -357 0
357 -355 -352 0
352 355 357 0
-357 0
358 359 0
360 359 0
-358 -360 -359 0
-356 359 -361 0
356 -359 -361 0
361 -359 -356 0
356 359 361 0
-361 0
362 363 0
364 363 0
-362 -364 -363 0
-360 363 -365 0
360 -363 -365 0
365 -363 -360 0
360 363 365 0
-365 0
366 367 0
368 367 0
-366 -368 -367 0
-364 367 -369 0
364 -367 -369 0
369 -367 -364 0
364 367 369 0
-369 0
370 371 0
372 371 0
-370 -372 -371 0
-368 371 -373 0
368 -371 -373 0
373 -371 -368 0
368 371 373 0
-373 0
374 375 0
376 375 0
-374 -376 -375 0
-372 375 -377 0
372 -375 -377 0
377 -375 -372 0
372 375 377 0
-377 0
378 379 0
380 379 0
-378 -380 -379 0
-376 379 -381 0
376 -379 -381 0
381 -379 -376 0
376 379 381 0
-381 0
382 383 0
384 383 0
-382 -384 -383 0
-380 383 -385 0
380 -383 -385 0
385 -383 -380 0
380 383 385 0
-385 0
386 387 0
388 387 0
-386 -388 -387 0
-384 387 -389 0
384 -387 -389 0
389 -387 -384 0
384 387 389 0
-389 0
390 391 0
392 391 0
-390 -392 -391 0
-388 391 -393 0
388 -391 -393 0
393 -391 -388 0
388 391 393 0
-393 0
366 394 0
370 394 0
374 394 0
378 394 0
382 394 0
386 394 0
390 394 0
395 394 0
-396 0
-392 394 -397 0
392 -394 -397 0
397 -394 -392 0
392 394 397 0
-397 0
398 399 0
400 399 0
-398 -400 -399 0
-401 399 -402 0
401 -399 -402 0
402 -399 -401 0
401 399 402 0
-402 0
403 404 0
405 404 0
-403 -405 -404 0
-400 404 -406 0
400 -404 -406 0
406 -404 -400 0
400 404 406 0
-406 0
407 408 0
409 408 0
-407 -409 -408 0
-405 408 -410 0
405 -408 -410 0
410 -408 -405 0
405 408 410 0
-410 0
411 412 0
413 412 0
-411 -413 -412 0
-409 412 -414 0
409 -412 -414 0
414 -412 -409 0
409 412 414 0
-414 0
415 416 0
417 416 0
-415 -417 -416 0
-413 416 -418 0
413 -416 -418 0
418 -416 -413 0
413 416 418 0
-418 0
323 419 0
420 419 0
-323 -420 -419 0
-417 419 -421 0
417 -419 -421 0
421 -419 -417 0
417 419 421 0
-421 0
422 423 0
424 423 0
-422 -424 -423 0
-425 423 -426 0
425 -423 -426 0
426 -423 -425 0
425 423 426 0
-426 0
427 428 0
429 428 0
-427 -429 -428 0
-424 428 -430 0
424 -428 -430 0
430 -428 -424 0
424 428 430 0
-430 0
431 432 0
433 432 0
-431 -433 -432 0
-429 432 -434 0
429 -432 -434 0
434 -432 -429 0
429 432 434 0
-434 0
435 436 0
437 436 0
-435 -437 -436 0
-433 436 -438 0
433 -436 -438 0
438 -436 -433 0
433 436 438 0
-438 0
439 440 0
441 440 0
-439 -441 -440 0
-437 440 -442 0
437 -440 -442 0
442 -440 -437 0
437 440 442 0
-442 0
443 444 0
445 444 0
-443 -445 -444 0
-441 444 -446 0
441 -444 -446 0
446 -444 -441 0
441 444 446 0
-446 0
447 448 0
449 448 0
-447 -449 -448 0
-445 448 -450 0
445 -448 -450 0
450 -448 -445 0
445 448 450 0
-450 0
451 452 0
453 452 0
-451 -453 -452 0
-449 452 -454 0
449 -452 -454 0
454 -452 -449 0
449 452 454 0
-454 0
455 456 0
457 456 0
-455 -457 -456 0
-453 456 -458 0
453 -456 -458 0
458 -456 -453 0
453 456 458 0
-458 0
459 460 0
461 460 0
-459 -461 -460 0
-457 460 -462 0
457 -460 -462 0
462 -460 -457 0
457 460 462 0
-462 0
463 464 0
465 464 0
-463 -465 -464 0
-461 464 -466 0
461 -464 -466 0
466 -464 -461 0
461 464 466 0
-466 0
467 468 0
469 468 0
-467 -469 -468 0
-465 468 -470 0
465 -468 -470 0
470 -468 -465 0
465 468 470 0
-470 0
471 472 0
473 472 0
-471 -473 -472 0
-469 472 -474 0
469 -472 -474 0
474 -472 -469 0
469 472 474 0
-474 0
475 476 0
477 476 0
-475 -477 -476 0
-473 476 -478 0
473 -476 -478 0
478 -476 -473 0
473 476 478 0
-478 0
451 479 0
455 479 0
459 479 0
463 479 0
467 479 0
471 479 0
475 479 0
480 479 0
-481 0
-477 479 -482 0
477 -479 -482 0
482 -479 -477 0
477 479 482 0
-482 0
483 484 0
485 484 0
-483 -485 -484 0
-486 484 -487 0
486 -484 -487 0
487 -484 -486 0
486 484 487 0
-487 0
488 489 0
490 489 0
-488 -490 -489 0
-485 489 -491 0
485 -489 -491 0
491 -489 -485 0
485 489 491 0
-491 0
492 493 0
494 493 0
-492 -494 -493 0
-490 493 -495 0
490 -493 -495 0
495 -493 -490 0
490 493 495 0
-495 0
496 497 0
498 497 0
-496 -498 -497 0
-494 497 -499 0
494 -497 -499 0
499 -497 -494 0
494 497 499 0
-499 0
500 501 0
502 501 0
-500 -502 -501 0
-498 501 -503 0
498 -501 -503 0
503 -501 -498 0
498 501 503 0
-503 0
504 505 0
506 505 0
-504 -506 -505 0
-502 505 -507 0
502 -505 -507 0
507 -505 -502 0
502 505 507 0
-507 0
508 509 0
510 509 0
-508 -510 -509 0
-506 509 -511 0
506 -509 -511 0
511 -509 -506 0
506 509 511 0
-511 0
512 513 0
514 513 0
-512 -514 -513 0
-510 513 -515 0
510 -513 -515 0
515 -513 -510 0
510 513 515 0
-515 0
516 517 0
518 517 0
-516 -518 -517 0
-514 517 -519 0
514 -517 -519 0
519 -517 -514 0
514 517 519 0
-519 0
520 521 0
522 521 0
-520 -522 -521 0
-518 521 -523 0
518 -521 -523 0
523 -521 -518 0
518 521 523 0
-523 0
524 525 0
526 525 0
-524 -526 -525 0
-522 525 -527 0
522 -525 -527 0
527 -525 -522 0
522 525 527 0
-527 0
528 529 0
530 529 0
-528 -530 -529 0
-526 529 -531 0
526 -529 -531 0
531 -529 -526 0
526 529 531 0
-531 0
532 533 0
534 533 0
-532 -534 -533 0
-530 533 -535 0
530 -533 -535 0
535 -533 -530 0
530 533 535 0
-535 0
536 537 0
538 537 0
-536 -538 -537 0
-534 537 -539 0
534 -537 -539 0
539 -537 -534 0
534 537 539 0
-539 0
516 540 0
520 540 0
524 540 0
528 540 0
532 540 0
536 540 0
541 540 0
-542 0
-538 540 -543 0
538 -540 -543 0
543 -540 -538 0
538 540 543 0
-543 0
544 545 0
546 545 0
-544 -546 -545 0
-547 545 -548 0
547 -545 -548 0
548 -545 -547 0
547 545 548 0
-548 0
549 550 0
551 550 0
-549 -551 -550 0
-546 550 -552 0
546 -550 -552 0
552 -550 -546 0
546 550 552 0
-552 0
553 554 0
555 554 0
-553 -555 -554 0
-551 554 -556 0
551 -554 -556 0
556 -554 -551 0
551 554 556 0
-556 0
557 558 0
559 558 0
-557 -559 -558 0
-555 558 -560 0
555 -558 -560 0
560 -558 -555 0
555 558 560 0
-560 0
561 562 0
563 562 0
-561 -563 -562 0
-559 562 -564 0
559 -562 -564 0
564 -562 -559 0
559 562 564 0
-564 0
91 565 0
566 565 0
-91 -566 -565 0
-563 565 -567 0
563 -565 -567 0
567 -565 -563 0
563 565 567 0
-567 0
568 569 0
570 569 0
-568 -570 -569 0
-571 569 -572 0
571 -569 -572 0
572 -569 -571 0
571 569 572 0
-572 0
573 574 0
575 574 0
-573 -575 -574 0
-570 574 -576 0
570 -574 -576 0
576 -574 -570 0
570 574 576 0
-576 0
577 578 0
579 578 0
-577 -579 -578 0
-575 578 -580 0
575 -578 -580 0
580 -578 -575 0
575 578 580 0
-580 0
581 582 0
583 582 0
-581 -583 -582 0
-579 582 -584 0
579 -582 -584 0
584 -582 -579 0
579 582 584 0
-584 0
585 586 0
587 586 0
-585 -587 -586 0
-583 586 -588 0
583 -586 -588 0
588 -586 -583 0
583 586 588 0
-588 0
589 590 0
591 590 0
-589 -591 -590 0
-587 590 -592 0
587 -590 -592 0
592 -590 -587 0
587 590 592 0
-592 0
593 594 0
595 594 0
-593 -595 -594 0
-591 594 -596 0
591 -594 -596 0
596 -594 -591 0
591 594 596 0
-596 0
597 598 0
599 598 0
-597 -599 -598 0
-595 598 -600 0
595 -598 -600 0
600 -598 -595 0
595 598 600 0
-600 0
601 602 0
603 602 0
-601 -603 -602 0
-599 602 -604 0
599 -602 -604 0
604 -602 -599 0
599 602 604 0
-604 0
605 606 0
607 606 0
-605 -607 -606 0
-603 606 -608 0
603 -606 -608 0
608 -606 -603 0
603 606 608 0
-608 0
609 610 0
611 610 0
-609 -611 -610 0
-607 610 -612 0
607 -610 -612 0
612 -610 -607 0
607 610 612 0
-612 0
613 614 0
615 614 0
-613 -615 -614 0
-611 614 -616 0
611 -614 -616 0
616 -614 -611 0
611 614 616 0
-616 0
617 618 0
619 618 0
-617 -619 -618 0
-615 618 -620 0
615 -618 -620 0
620 -618 -615 0
615 618 620 0
-620 0
621 622 0
623 622 0
-621 -623 -622 0
-619 622 -624 0
619 -622 -624 0
624 -622 -619 0
619 622 624 0
-624 0
597 625 0
601 625 0
605 625 0
609 625 0
613 625 0
617 625 0
621 625 0
626 625 0
-627 0
-623 625 -628 0
623 -625 -628 0
628 -625 -623 0
623 625 628 0
-628 0
629 630 0
631 630 0
-629 -631 -630 0
-632 630 -633 0
632 -630 -633 0
633 -630 -632 0
632 630 633 0
-633 0
634 635 0
636 635 0
-634 -636 -635 0
-631 635 -637 0
631 -635 -637 0
637 -635 -631 0
631 635 637 0
-637 0
638 639 0
640 639 0
-638 -640 -639 0
-636 639 -641 0
636 -639 -641 0
641 -639 -636 0
636 639 641 0
-641 0
642 643 0
644 643 0
-642 -644 -643 0
-640 643 -645 0
640 -643 -645 0
645 -643 -640 0
640 643 645 0
-645 0
457 646 0
647 646 0
-457 -647 -646 0
-644 646 -648 0
644 -646 -648 0
648 -646 -644 0
644 646 648 0
-648 0
649 650 0
651 650 0
-649 -651 -650 0
-652 650 -653 0
652 -650 -653 0
653 -650 -652 0
652 650 653 0
-653 0
654 655 0
656 655 0
-654 -656 -655 0
-651 655 -657 0
651 -655 -657 0
657 -655 -651 0
651 655 657 0
-657 0
658 659 0
660 659 0
-658 -660 -659 0
-656 659 -661 0
656 -659 -661 0
661 -659 -656 0
656 659 661 0
-661 0
662 663 0
664 663 0
-662 -664 -663 0
-660 663 -665 0
660 -663 -665 0
665 -663 -660 0
660 663 665 0
-665 0
666 667 0
668 667 0
-666 -668 -667 0
-664 667 -669 0
664 -667 -669 0
669 -667 -664 0
664 667 669 0
-669 0
670 671 0
672 671 0
-670 -672 -671 0
-668 671 -673 0
668 -671 -673 0
673 -671 -668 0
668 671 673 0
-673 0
674 675 0
676 675 0
-674 -676 -675 0
-672 675 -677 0
672 -675 -677 0
677 -675 -672 0
672 675 677 0
-677 0
678 679 0
680 679 0
-678 -680 -679 0
-676 679 -681 0
676 -679 -681 0
681 -679 -676 0
676 679 681 0
-681 0
682 683 0
684 683 0
-682 -684 -683 0
-680 683 -685 0
680 -683 -685 0
685 -683 -680 0
680 683 685 0
-685 0
686 687 0
688 687 0
-686 -688 -687 0
-684 687 -689 0
684 -687 -689 0
689 -687 -684 0
684 687 689 0
-689 0
690 691 0
692 691 0
-690 -692 -691 0
-688 691 -693 0
688 -691 -693 0
693 -691 -688 0
688 691 693 0
-693 0
694 695 0
696 695 0
-694 -696 -695 0
-692 695 -697 0
692 -695 -697 0
697 -695 -692 0
692 695 697 0
-697 0
678 698 0
682 698 0
686 698 0
690 698 0
694 698 0
699 698 0
-700 0
-696 698 -701 0
696 -698 -701 0
701 -698 -696 0
696 698 701 0
-701 0
702 703 0
704 703 0
-702 -704 -703 0
-705 703 -706 0
705 -703 -706 0
706 -703 -705 0
705 703 706 0
-706 0
707 708 0
709 708 0
-707 -709 -708 0
-704 708 -710 0
704 -708 -710 0
710 -708 -704 0
704 708 710 0
-710 0
711 712 0
713 712 0
-711 -713 -712 0
-709 712 -714 0
709 -712 -714 0
714 -712 -709 0
709 712 714 0
-714 0
715 716 0
717 716 0
-715 -717 -716 0
-713 716 -718 0
713 -716 -718 0
718 -716 -713 0
713 716 718 0
-718 0
719 720 0
721 720 0
-719 -721 -720 0
-717 720 -722 0
717 -720 -722 0
722 -720 -717 0
717 720 722 0
-722 0
723 724 0
725 724 0
-723 -725 -724 0
-721 724 -726 0
721 -724 -726 0
726 -724 -721 0
721 724 726 0
-726 0
727 728 0
729 728 0
-727 -729 -728 0
-725 728 -730 0
725 -728 -730 0
730 -728 -725 0
725 728 730 0
-730 0
254 731 0
732 731 0
-254 -732 -731 0
-729 731 -733 0
729 -731 -733 0
733 -731 -729 0
729 731 733 0
-733 0
734 735 0
736 735 0
-734 -736 -735 0
-737 735 -738 0
737 -735 -738 0
738 -735 -737 0
737 735 738 0
-738 0
739 740 0
741 740 0
-739 -741 -740 0
-736 740 -742 0
736 -740 -742 0
742 -740 -736 0
736 740 742 0
-742 0
743 744 0
745 744 0
-743 -745 -744 0
-741 744 -746 0
741 -744 -746 0
746 -744 -741 0
741 744 746 0
-746 0
747 748 0
749 748 0
-747 -749 -748 0
-745 748 -750 0
745 -748 -750 0
750 -748 -745 0
745 748 750 0
-750 0
751 752 0
753 752 0
-751 -753 -752 0
-749 752 -754 0
749 -752 -754 0
754 -752 -749 0
749 752 754 0
-754 0
755 756 0
757 756 0
-755 -757 -756 0
-753 756 -758 0
753 -756 -758 0
758 -756 -753 0
753 756 758 0
-758 0
759 760 0
761 760 0
-759 -761 -760 0
-757 760 -762 0
757 -760 -762 0
762 -760 -757 0
757 760 762 0
-762 0
763 764 0
765 764 0
-763 -765 -764 0
-761 764 -766 0
761 -764 -766 0
766 -764 -761 0
761 764 766 0
-766 0
767 768 0
769 768 0
-767 -769 -768 0
-765 768 -770 0
765 -768 -770 0
770 -768 -765 0
765 768 770 0
-770 0
771 772 0
773 772 0
-771 -773 -772 0
-769 772 -774 0
769 -772 -774 0
774 -772 -769 0
769 772 774 0
-774 0
775 776 0
777 776 0
-775 -777 -776 0
-773 776 -778 0
773 -776 -778 0
778 -776 -773 0
773 776 778 0
-778 0
755 779 0
759 779 0
763 779 0
767 779 0
771 779 0
775 779 0
780 779 0
-781 0
-777 779 -782 0
777 -779 -782 0
782 -779 -777 0
777 779 782 0
-782 0
783 784 0
785 784 0
-783 -785 -784 0
-786 784 -787 0
786 -784 -787 0
787 -784 -786 0
786 784 787 0
-787 0
788 789 0
790 789 0
-788 -790 -789 0
-785 789 -791 0
785 -789 -791 0
791 -789 -785 0
785 789 791 0
-791 0
792 793 0
794 793 0
-792 -794 -793 0
-790 793 -795 0
790 -793 -795 0
795 -793 -790 0
790 793 795 0
-795 0
796 797 0
798 797 0
-796 -798 -797 0
-794 797 -799 0
794 -797 -799 0
799 -797 -794 0
794 797 799 0
-799 0
800 801 0
802 801 0
-800 -802 -801 0
-798 801 -803 0
798 -801 -803 0
803 -801 -798 0
798 801 803 0
-803 0
804 805 0
806 805 0
-804 -806 -805 0
-802 805 -807 0
802 -805 -807 0
807 -805 -802 0
802 805 807 0
-807 0
680 808 0
809 808 0
-680 -809 -808 0
-806 808 -810 0
806 -808 -810 0
810 -808 -806 0
806 808 810 0
-810 0
811 812 0
813 812 0
-811 -813 -812 0
-814 812 -815 0
814 -812 -815 0
815 -812 -814 0
814 812 815 0
-815 0
816 817 0
818 817 0
-816 -818 -817 0
-813 817 -819 0
813 -817 -819 0
819 -817 -813 0
813 817 819 0
-819 0
820 821 0
822 821 0
-820 -822 -821 0
-818 821 -823 0
818 -821 -823 0
823 -821 -818 0
818 821 823 0
-823 0
824 825 0
826 825 0
-824 -826 -825 0
-822 825 -827 0
822 -825 -827 0
827 -825 -822 0
822 825 827 0
-827 0
828 829 0
830 829 0
-828 -830 -829 0
-826 829 -831 0
826 -829 -831 0
831 -829 -826 0
826 829 831 0
-831 0
832 833 0
834 833 0
-832 -834 -833 0
-830 833 -835 0
830 -833 -835 0
835 -833 -830 0
830 833 835 0
-835 0
836 837 0
838 837 0
-836 -838 -837 0
-834 837 -839 0
834 -837 -839 0
839 -837 -834 0
834 837 839 0
-839 0
840 841 0
842 841 0
-840 -842 -841 0
-838 841 -843 0
838 -841 -843 0
843 -841 -838 0
838 841 843 0
-843 0
844 845 0
846 845 0
-844 -846 -845 0
-842 845 -847 0
842 -845 -847 0
847 -845 -842 0
842 845 847 0
-847 0
848 849 0
850 849 0
-848 -850 -849 0
-846 849 -851 0
846 -849 -851 0
851 -849 -846 0
846 849 851 0
-851 0
852 853 0
854 853 0
-852 -854 -853 0
-850 853 -855 0
850 -853 -855 0
855 -853 -850 0
850 853 855 0
-855 0
856 857 0
858 857 0
-856 -858 -857 0
-854 857 -859 0
854 -857 -859 0
859 -857 -854 0
854 857 859 0
-859 0
860 861 0
862 861 0
-860 -862 -861 0
-858 861 -863 0
858 -861 -863 0
863 -861 -858 0
858 861 863 0
-863 0
864 865 0
866 865 0
-864 -866 -865 0
-862 865 -867 0
862 -865 -867 0
867 -865 -862 0
862 865 867 0
-867 0
840 868 0
844 868 0
848 868 0
852 868 0
856 868 0
860 868 0
864 868 0
869 868 0
-870 0
-866 868 -871 0
866 -868 -871 0
871 -868 -866 0
866 868 871 0
-871 0
872 873 0
874 873 0
-872 -874 -873 0
-875 873 -876 0
875 -873 -876 0
876 -873 -875 0
875 873 876 0
-876 0
877 878 0
879 878 0
-877 -879 -878 0
-874 878 -880 0
874 -878 -880 0
880 -878 -874 0
874 878 880 0
-880 0
881 882 0
883 882 0
-881 -883 -882 0
-879 882 -884 0
879 -882 -884 0
884 -882 -879 0
879 882 884 0
-884 0
885 886 0
887 886 0
-885 -887 -886 0
-883 886 -888 0
883 -886 -888 0
888 -886 -883 0
883 886 888 0
-888 0
889 890 0
891 890 0
-889 -891 -890 0
-887 890 -892 0
887 -890 -892 0
892 -890 -887 0
887 890 892 0
-892 0
893 894 0
895 894 0
-893 -895 -894 0
-891 894 -896 0
891 -894 -896 0
896 -894 -891 0
891 894 896 0
-896 0
897 898 0
899 898 0
-897 -899 -898 0
-895 898 -900 0
895 -898 -900 0
900 -898 -895 0
895 898 900 0
-900 0
901 902 0
903 902 0
-901 -903 -902 0
-899 902 -904 0
899 -902 -904 0
904 -902 -899 0
899 902 904 0
-904 0
905 906 0
907 906 0
-905 -907 -906 0
-903 906 -908 0
903 -906 -908 0
908 -906 -903 0
903 906 908 0
-908 0
909 910 0
911 910 0
-909 -911 -910 0
-907 910 -912 0
907 -910 -912 0
912 -910 -907 0
907 910 912 0
-912 0
913 914 0
915 914 0
-913 -915 -914 0
-911 914 -916 0
911 -914 -916 0
916 -914 -911 0
911 914 916 0
-916 0
917 918 0
919 918 0
-917 -919 -918 0
-915 918 -920 0
915 -918 -920 0
920 -918 -915 0
915 918 920 0
-920 0
893 921 0
897 921 0
901 921 0
905 921 0
909 921 0
913 921 0
917 921 0
922 921 0
-923 0
-919 921 -924 0
919 -921 -924 0
924 -921 -919 0
919 921 924 0
-924 0
925 926 0
927 926 0
-925 -927 -926 0
-928 926 -929 0
928 -926 -929 0
929 -926 -928 0
928 926 929 0
-929 0
930 931 0
932 931 0
-930 -932 -931 0
-927 931 -933 0
927 -931 -933 0
933 -931 -927 0
927 931 933 0
-933 0
934 935 0
936 935 0
-934 -936 -935 0
-932 935 -937 0
932 -935 -937 0
937 -935 -932 0
932 935 937 0
-937 0
938 939 0
940 939 0
-938 -940 -939 0
-936 939 -941 0
936 -939 -941 0
941 -939 -936 0
936 939 941 0
-941 0
942 943 0
944 943 0
-942 -944 -943 0
-940 943 -945 0
940 -943 -945 0
945 -943 -940 0
940 943 945 0
-945 0
769 946 0
947 946 0
-769 -947 -946 0
-944 946 -948 0
944 -946 -948 0
948 -946 -944 0
944 946 948 0
-948 0
949 950 0
951 950 0
-949 -951 -950 0
-952 950 -953 0
952 -950 -953 0
953 -950 -952 0
952 950 953 0
-953 0
954 955 0
956 955 0
-954 -956 -955 0
-951 955 -957 0
951 -955 -957 0
957 -955 -951 0
951 955 957 0
-957 0
958 959 0
960 959 0
-958 -960 -959 0
-956 959 -961 0
956 -959 -961 0
961 -959 -956 0
956 959 961 0
-961 0
962 963 0
964 963 0
-962 -964 -963 0
-960 963 -965 0
960 -963 -965 0
965 -963 -960 0
960 963 965 0
-965 0
966 967 0
968 967 0
-966 -968 -967 0
-964 967 -969 0
964 -967 -969 0
969 -967 -964 0
964 967 969 0
-969 0
970 971 0
972 971 0
-970 -972 -971 0
-968 971 -973 0
968 -971 -973 0
973 -971 -968 0
968 971 973 0
-973 0
974 975 0
976 975 0
-974 -976 -975 0
-972 975 -977 0
972 -975 -977 0
977 -975 -972 0
972 975 977 0
-977 0
978 979 0
980 979 0
-978 -980 -979 0
-976 979 -981 0
976 -979 -981 0
981 -979 -976 0
976 979 981 0
-981 0
982 983 0
984 983 0
-982 -984 -983 0
-980 983 -985 0
980 -983 -985 0
985 -983 -980 0
980 983 985 0
-985 0
986 987 0
988 987 0
-986 -988 -987 0
-984 987 -989 0
984 -987 -989 0
989 -987 -984 0
984 987 989 0
-989 0
990 991 0
992 991 0
-990 -992 -991 0
-988 991 -993 0
988 -991 -993 0
993 -991 -988 0
988 991 993 0
-993 0
994 995 0
996 995 0
-994 -996 -995 0
-992 995 -997 0
992 -995 -997 0
997 -995 -992 0
992 995 997 0
-997 0
998 999 0
1000 999 0
-998 -1000 -999 0
-996 999 -1001 0
996 -999 -1001 0
1001 -999 -996 0
996 999 1001 0
-1001 0
1002 1003 0
1004 1003 0
-1002 -1004 -1003 0
-1000 1003 -1005 0
1000 -1003 -1005 0
1005 -1003 -1000 0
1000 1003 1005 0
-1005 0
978 1006 0
982 1006 0
986 1006 0
990 1006 0
994 1006 0
998 1006 0
1002 1006 0
1007 1006 0
-1008 0
-1004 1006 -1009 0
1004 -1006 -1009 0
1009 -1006 -1004 0
1004 1006 1009 0
-1009 0
1010 1011 0
1012 1011 0
-1010 -1012 -1011 0
-1013 1011 -1014 0
1013 -1011 -1014 0
1014 -1011 -1013 0
1013 1011 1014 0
-1014 0
1015 1016 0
1017 1016 0
-1015 -1017 -1016 0
-1012 1016 -1018 0
1012 -1016 -1018 0
1018 -1016 -1012 0
1012 1016 1018 0
-1018 0
1019 1020 0
1021 1020 0
-1019 -1021 -1020 0
-1017 1020 -1022 0
1017 -1020 -1022 0
1022 -1020 -1017 0
1017 1020 1022 0
-1022 0
1023 1024 0
1025 1024 0
-1023 -1025 -1024 0
-1021 1024 -1026 0
1021 -1024 -1026 0
1026 -1024 -1021 0
1021 1024 1026 0
-1026 0
1027 1028 0
1029 1028 0
-1027 -1029 -1028 0
-1025 1028 -1030 0
1025 -1028 -1030 0
1030 -1028 -1025 0
1025 1028 1030 0
-1030 0
1031 1032 0
1033 1032 0
-1031 -1033 -1032 0
-1029 1032 -1034 0
1029 -1032 -1034 0
1034 -1032 -1029 0
1029 1032 1034 0
-1034 0
1035 1036 0
1037 1036 0
-1035 -1037 -1036 0
-1033 1036 -1038 0
1033 -1036 -1038 0
1038 -1036 -1033 0
1033 1036 1038 0
-1038 0
1039 1040 0
1041 1040 0
-1039 -1041 -1040 0
-1037 1040 -1042 0
1037 -1040 -1042 0
1042 -1040 -1037 0
1037 1040 1042 0
-1042 0
1043 1044 0
1045 1044 0
-1043 -1045 -1044 0
-1041 1044 -1046 0
1041 -1044 -1046 0
1046 -1044 -1041 0
1041 1044 1046 0
-1046 0
1047 1048 0
1049 1048 0
-1047 -1049 -1048 0
-1045 1048 -1050 0
1045 -1048 -1050 0
1050 -1048 -1045 0
1045 1048 1050 0
-1050 0
1051 1052 0
1053 1052 0
-1051 -1053 -1052 0
-1049 1052 -1054 0
1049 -1052 -1054 0
1054 -1052 -1049 0
1049 1052 1054 0
-1054 0
1055 1056 0
1057 1056 0
-1055 -1057 -1056 0
-1053 1056 -1058 0
1053 -1056 -1058 0
1058 -1056 -1053 0
1053 1056 1058 0
-1058 0
1059 1060 0
1061 1060 0
-1059 -1061 -1060 0
-1057 1060 -1062 0
1057 -1060 -1062 0
1062 -1060 -1057 0
1057 1060 1062 0
-1062 0
1063 1064 0
1065 1064 0
-1063 -1065 -1064 0
-1061 1064 -1066 0
1061 -1064 -1066 0
1066 -1064 -1061 0
1061 1064 1066 0
-1066 0
1043 1067 0
1047 1067 0
1051 1067 0
1055 1067 0
1059 1067 0
1063 1067 0
1068 1067 0
-1069 0
-1065 1067 -1070 0
1065 -1067 -1070 0
1070 -1067 -1065 0
1065 1067 1070 0
-1070 0
1071 1072 0
1073 1072 0
-1071 -1073 -1072 0
-1074 1072 -1075 0
1074 -1072 -1075 0
1075 -1072 -1074 0
1074 1072 1075 0
-1075 0
1076 1077 0
1078 1077 0
-1076 -1078 -1077 0
-1073 1077 -1079 0
1073 -1077 -1079 0
1079 -1077 -1073 0
1073 1077 1079 0
-1079 0
1080 1081 0
1082 1081 0
-1080 -1082 -1081 0
-1078 1081 -1083 0
1078 -1081 -1083 0
1083 -1081 -1078 0
1078 1081 1083 0
-1083 0
1084 1085 0
1086 1085 0
-1084 -1086 -1085 0
-1082 1085 -1087 0
1082 -1085 -1087 0
1087 -1085 -1082 0
1082 1085 1087 0
-1087 0
1088 1089 0
1090 1089 0
-1088 -1090 -1089 0
-1086 1089 -1091 0
1086 -1089 -1091 0
1091 -1089 -1086 0
1086 1089 1091 0
-1091 0
1092 1093 0
1094 1093 0
-1092 -1094 -1093 0
-1090 1093 -1095 0
1090 -1093 -1095 0
1095 -1093 -1090 0
1090 1093 1095 0
-1095 0
1096 1097 0
1098 1097 0
-1096 -1098 -1097 0
-1094 1097 -1099 0
1094 -1097 -1099 0
1099 -1097 -1094 0
1094 1097 1099 0
-1099 0
1100 1101 0
1102 1101 0
-1100 -1102 -1101 0
-1098 1101 -1103 0
1098 -1101 -1103 0
1103 -1101 -1098 0
1098 1101 1103 0
-1103 0
1104 1105 0
1106 1105 0
-1104 -1106 -1105 0
-1102 1105 -1107 0
1102 -1105 -1107 0
1107 -1105 -1102 0
1102 1105 1107 0
-1107 0
1108 1109 0
1110 1109 0
-1108 -1110 -1109 0
-1106 1109 -1111 0
1106 -1109 -1111 0
1111 -1109 -1106 0
1106 1109 1111 0
-1111 0
1088 1112 0
1092 1112 0
1096 1112 0
1100 1112 0
1104 1112 0
1108 1112 0
1113 1112 0
-1114 0
-1110 1112 -1115 0
1110 -1112 -1115 0
1115 -1112 -1110 0
1110 1112 1115 0
-1115 0
1116 1117 0
1118 1117 0
-1116 -1118 -1117 0
-1119 1117 -1120 0
1119 -1117 -1120 0
1120 -1117 -1119 0
1119 1117 1120 0
-1120 0
1121 1122 0
1123 1122 0
-1121 -1123 -1122 0
-1118 1122 -1124 0
1118 -1122 -1124 0
1124 -1122 -1118 0
1118 1122 1124 0
-1124 0
1125 1126 0
1127 1126 0
-1125 -1127 -1126 0
-1123 1126 -1128 0
1123 -1126 -1128 0
1128 -1126 -1123 0
1123 1126 1128 0
-1128 0
1129 1130 0
1131 1130 0
-1129 -1131 -1130 0
-1127 1130 -1132 0
1127 -1130 -1132 0
1132 -1130 -1127 0
1127 1130 1132 0
-1132 0
1133 1134 0
1135 1134 0
-1133 -1135 -1134 0
-1131 1134 -1136 0
1131 -1134 -1136 0
1136 -1134 -1131 0
1131 1134 1136 0
-1136 0
761 1137 0
1138 1137 0
-761 -1138 -1137 0
-1135 1137 -1139 0
1135 -1137 -1139 0
1139 -1137 -1135 0
1135 1137 1139 0
-1139 0
1 0
-6 0
-55 0
-104 0
-153 0
-206 0
-230 0
-287 0
-340 0
-401 0
-425 0
-486 0
-547 0
-571 0
-632 0
-652 0
-705 0
-737 0
-786 0
-814 0
-875 0
-928 0
-952 0
-1013 0
-1074 0
-1119 0
